p cnf 24 60
a 4 6 0
d 1 4 0
d 2 6 0
d 3 4 6 0
d 5 4 6 0
d 7 4 6 0
d 8 4 0
d 9 4 6 0
d 10 4 6 0
d 11 4 6 0
d 12 4 6 0
d 13 6 0
d 14 4 6 0
d 15 4 6 0
d 16 4 6 0
d 17 4 6 0
d 18 6 0
d 19 4 6 0
d 20 4 6 0
d 21 4 6 0
d 22 4 6 0
d 23 4 6 0
d 24 4 6 0
-3 1 0
-3 2 0
3 -1 -2 0
-5 3 0
-5 4 0
5 -3 -4 0
-7 5 0
-7 6 0
7 -5 -6 0
8 1 0
-8 -1 0
-9 8 0
-9 2 0
9 -8 -2 0
-10 9 0
-10 4 0
10 -9 -4 0
-11 10 0
-11 6 0
11 -10 -6 0
12 -7 0
12 -11 0
-12 7 11 0
13 2 0
-13 -2 0
-14 1 0
-14 13 0
14 -1 -13 0
-15 14 0
-15 4 0
15 -14 -4 0
-16 15 0
-16 6 0
16 -15 -6 0
17 -12 0
17 -16 0
-17 12 16 0
18 6 0
-18 -6 0
-19 5 0
-19 18 0
19 -5 -18 0
20 -17 0
20 -19 0
-20 17 19 0
-21 10 0
-21 18 0
21 -10 -18 0
22 -20 0
22 -21 0
-22 20 21 0
23 -4 6 0
23 4 -6 0
-23 -4 -6 0
-23 4 6 0
24 -22 -23 0
24 22 23 0
-24 -22 23 0
-24 22 -23 0
24 0
